NAME : LPS-n26-m185
COMMENT : (Lartu-Peter-Santi Plot, instance 9385 out of 39200. 26 customers.)
TYPE : CVRP
DIMENSION : 26
EDGE_WEIGHT_TYPE : EUC_2D
CAPACITY : 86
NODE_COORD_SECTION
 1 99 12
 2 24 83
 3 91 5
 4 21 0
 5 9 33
 6 95 85
 7 16 93
 8 61 61
 9 74 86
 10 66 54
 11 40 94
 12 96 15
 13 84 55
 14 38 100
 15 57 96
 16 74 94
 17 15 30
 18 62 69
 19 64 7
 20 61 28
 21 32 16
 22 31 55
 23 68 47
 24 70 84
 25 77 57
 26 5 55
DEMAND_SECTION
1 0
2 66
3 79
4 76
5 15
6 81
7 7
8 50
9 39
10 2
11 20
12 47
13 83
14 41
15 28
16 74
17 74
18 64
19 2
20 78
21 45
22 36
23 67
24 10
25 68
26 42
DEPOT_SECTION
 1
 -1
EOF
